17	4
14	12	11	12	
0	0	0	0	0	3	2	3	4	
7	0	0	0	7	3	5	14	17	
6	10	0	3	0	3	8	12	17	
5	0	0	8	5	3	8	12	17	
10	5	0	0	0	3	6	7	17	
225	0	9	0	5	1	11	
175	8	0	1	0	2	15	16	
250	0	9	0	2	3	9	11	17	
50	0	0	0	9	3	10	17	17	
225	0	2	2	0	1	13	
250	0	0	3	4	2	17	17	
75	8	0	1	9	1	17	
2	0	9	1	0	1	17	
8	7	0	10	0	3	17	17	17	
5	5	9	0	2	1	17	
8	2	1	3	0	1	17	
0	0	0	0	0	0	
